\ LP format - for model browsing. Use MPS format to capture full model detail.
Minimize
  0 e(2,2,2) + 0 e(2,2,3) + 0 e(2,2,4) + 0 e(2,2,5) + 0 e(2,2,6)
   + 0 e(2,2,7) + 0 e(2,2,8) + 0 e(2,2,9) + 0 e(2,2,10) + 0 e(3,1,2)
   + 0 e(3,3,2) + 0 e(3,1,3) + 0 e(3,3,3) + 0 e(3,1,4) + 0 e(3,3,4)
   + 0 e(3,1,5) + 0 e(3,3,5) + 0 e(3,1,6) + 0 e(3,3,6) + 0 e(3,1,7)
   + 0 e(3,3,7) + 0 e(3,1,8) + 0 e(3,3,8) + 0 e(3,1,9) + 0 e(3,3,9)
   + 0 e(3,1,10) + 0 e(3,3,10) + C
Subject To
 28(1,1): - f(1,1) - x(1,1,1) - x(1,2,1) - x(1,3,1) = -1
 28(2,1): - f(2,1) - x(2,1,1) - x(2,2,1) - x(2,3,1) = -1
 28(3,1): - f(3,1) - x(3,1,1) - x(3,2,1) - x(3,3,1) = -1
 29(1,2): f(1,1) + x(1,1,1) + x(1,3,1) - f(1,2) - x(1,1,2) - x(1,2,2)
   - x(1,3,2) = 0
 29(1,3): x(1,2,1) + f(1,2) + x(1,1,2) + x(1,3,2) - f(1,3) - x(1,1,3)
   - x(1,2,3) - x(1,3,3) = 0
 29(1,4): x(1,2,2) + f(1,3) + x(1,1,3) + x(1,3,3) - f(1,4) - x(1,1,4)
   - x(1,2,4) - x(1,3,4) = 0
 29(1,5): x(1,2,3) + f(1,4) + x(1,1,4) + x(1,3,4) - f(1,5) - x(1,1,5)
   - x(1,2,5) - x(1,3,5) = 0
 29(1,6): x(1,2,4) + f(1,5) + x(1,1,5) + x(1,3,5) - f(1,6) - x(1,1,6)
   - x(1,2,6) - x(1,3,6) = 0
 29(1,7): x(1,2,5) + f(1,6) + x(1,1,6) + x(1,3,6) - f(1,7) - x(1,1,7)
   - x(1,2,7) - x(1,3,7) = 0
 29(1,8): x(1,2,6) + f(1,7) + x(1,1,7) + x(1,3,7) - f(1,8) - x(1,1,8)
   - x(1,2,8) - x(1,3,8) = 0
 29(1,9): x(1,2,7) + f(1,8) + x(1,1,8) + x(1,3,8) - f(1,9) - x(1,1,9)
   - x(1,2,9) - x(1,3,9) = 0
 29(1,10): x(1,2,8) + f(1,9) + x(1,1,9) + x(1,3,9) - f(1,10) - x(1,1,10)
   - x(1,2,10) - x(1,3,10) = 0
 29(2,2): f(2,1) + x(2,2,1) - f(2,2) - x(2,1,2) - x(2,2,2) - x(2,3,2) = 0
 29(2,3): x(2,1,1) + x(2,3,1) + f(2,2) + x(2,2,2) - f(2,3) - x(2,1,3)
   - x(2,2,3) - x(2,3,3) = 0
 29(2,4): x(2,1,2) + x(2,3,2) + f(2,3) + x(2,2,3) - f(2,4) - x(2,1,4)
   - x(2,2,4) - x(2,3,4) = 0
 29(2,5): x(2,1,3) + x(2,3,3) + f(2,4) + x(2,2,4) - f(2,5) - x(2,1,5)
   - x(2,2,5) - x(2,3,5) = 0
 29(2,6): x(2,1,4) + x(2,3,4) + f(2,5) + x(2,2,5) - f(2,6) - x(2,1,6)
   - x(2,2,6) - x(2,3,6) = 0
 29(2,7): x(2,1,5) + x(2,3,5) + f(2,6) + x(2,2,6) - f(2,7) - x(2,1,7)
   - x(2,2,7) - x(2,3,7) = 0
 29(2,8): x(2,1,6) + x(2,3,6) + f(2,7) + x(2,2,7) - f(2,8) - x(2,1,8)
   - x(2,2,8) - x(2,3,8) = 0
 29(2,9): x(2,1,7) + x(2,3,7) + f(2,8) + x(2,2,8) - f(2,9) - x(2,1,9)
   - x(2,2,9) - x(2,3,9) = 0
 29(2,10): x(2,1,8) + x(2,3,8) + f(2,9) + x(2,2,9) - f(2,10) - x(2,1,10)
   - x(2,2,10) - x(2,3,10) = 0
 29(3,2): f(3,1) + x(3,3,1) - f(3,2) - x(3,1,2) - x(3,2,2) - x(3,3,2) = 0
 29(3,3): x(3,1,1) + x(3,2,1) + f(3,2) + x(3,3,2) - f(3,3) - x(3,1,3)
   - x(3,2,3) - x(3,3,3) = 0
 29(3,4): x(3,1,2) + x(3,2,2) + f(3,3) + x(3,3,3) - f(3,4) - x(3,1,4)
   - x(3,2,4) - x(3,3,4) = 0
 29(3,5): x(3,1,3) + x(3,2,3) + f(3,4) + x(3,3,4) - f(3,5) - x(3,1,5)
   - x(3,2,5) - x(3,3,5) = 0
 29(3,6): x(3,1,4) + x(3,2,4) + f(3,5) + x(3,3,5) - f(3,6) - x(3,1,6)
   - x(3,2,6) - x(3,3,6) = 0
 29(3,7): x(3,1,5) + x(3,2,5) + f(3,6) + x(3,3,6) - f(3,7) - x(3,1,7)
   - x(3,2,7) - x(3,3,7) = 0
 29(3,8): x(3,1,6) + x(3,2,6) + f(3,7) + x(3,3,7) - f(3,8) - x(3,1,8)
   - x(3,2,8) - x(3,3,8) = 0
 29(3,9): x(3,1,7) + x(3,2,7) + f(3,8) + x(3,3,8) - f(3,9) - x(3,1,9)
   - x(3,2,9) - x(3,3,9) = 0
 29(3,10): x(3,1,8) + x(3,2,8) + f(3,9) + x(3,3,9) - f(3,10) - x(3,1,10)
   - x(3,2,10) - x(3,3,10) = 0
 30(1,1,1): - x(3,1,1) - e(3,1,1) = -1
 30(1,2,1): - x(2,2,1) - e(2,2,1) = -1
 30(1,3,1): - x(3,3,1) - e(3,3,1) = -1
 32(2,1,1): - x(1,1,1) - e(1,1,1) = 0
 32(2,1,2): e(1,1,1) - x(1,1,2) - e(1,1,2) = 0
 32(2,1,3): e(1,1,2) - x(1,1,3) - e(1,1,3) + x(3,1,1) = 0
 32(2,1,4): e(1,1,3) - x(1,1,4) - e(1,1,4) + x(3,1,2) = 0
 32(2,1,5): e(1,1,4) - x(1,1,5) - e(1,1,5) + x(3,1,3) = 0
 32(2,1,6): e(1,1,5) - x(1,1,6) - e(1,1,6) + x(3,1,4) = 0
 32(2,1,7): e(1,1,6) - x(1,1,7) - e(1,1,7) + x(3,1,5) = 0
 32(2,1,8): e(1,1,7) - x(1,1,8) - e(1,1,8) + x(3,1,6) = 0
 32(2,1,9): e(1,1,8) - x(1,1,9) - e(1,1,9) + x(3,1,7) = 0
 32(2,1,10): e(1,1,9) - x(1,1,10) - e(1,1,10) + x(3,1,8) = 0
 32(2,2,1): - x(3,2,1) - e(3,2,1) = 0
 32(2,2,2): x(2,2,1) + e(3,2,1) - x(3,2,2) - e(3,2,2) = 0
 32(2,2,3): x(2,2,2) + e(3,2,2) - x(3,2,3) - e(3,2,3) = 0
 32(2,2,4): x(2,2,3) + e(3,2,3) - x(3,2,4) - e(3,2,4) = 0
 32(2,2,5): x(2,2,4) + e(3,2,4) - x(3,2,5) - e(3,2,5) = 0
 32(2,2,6): x(2,2,5) + e(3,2,5) - x(3,2,6) - e(3,2,6) = 0
 32(2,2,7): x(2,2,6) + e(3,2,6) - x(3,2,7) - e(3,2,7) = 0
 32(2,2,8): x(2,2,7) + e(3,2,7) - x(3,2,8) - e(3,2,8) = 0
 32(2,2,9): x(2,2,8) + e(3,2,8) - x(3,2,9) - e(3,2,9) = 0
 32(2,2,10): x(2,2,9) + e(3,2,9) - x(3,2,10) - e(3,2,10) = 0
 32(2,3,1): - x(2,3,1) - e(2,3,1) = 0
 32(2,3,2): e(2,3,1) - x(2,3,2) - e(2,3,2) + x(3,3,1) = 0
 32(2,3,3): e(2,3,2) - x(2,3,3) - e(2,3,3) + x(3,3,2) = 0
 32(2,3,4): e(2,3,3) - x(2,3,4) - e(2,3,4) + x(3,3,3) = 0
 32(2,3,5): e(2,3,4) - x(2,3,5) - e(2,3,5) + x(3,3,4) = 0
 32(2,3,6): e(2,3,5) - x(2,3,6) - e(2,3,6) + x(3,3,5) = 0
 32(2,3,7): e(2,3,6) - x(2,3,7) - e(2,3,7) + x(3,3,6) = 0
 32(2,3,8): e(2,3,7) - x(2,3,8) - e(2,3,8) + x(3,3,7) = 0
 32(2,3,9): e(2,3,8) - x(2,3,9) - e(2,3,9) + x(3,3,8) = 0
 32(2,3,10): e(2,3,9) - x(2,3,10) - e(2,3,10) + x(3,3,9) = 0
 32(3,1,1): - x(2,1,1) - e(2,1,1) = 0
 32(3,1,2): x(1,1,1) + e(2,1,1) - x(2,1,2) - e(2,1,2) = 0
 32(3,1,3): x(1,1,2) + e(2,1,2) - x(2,1,3) - e(2,1,3) = 0
 32(3,1,4): x(1,1,3) + e(2,1,3) - x(2,1,4) - e(2,1,4) = 0
 32(3,1,5): x(1,1,4) + e(2,1,4) - x(2,1,5) - e(2,1,5) = 0
 32(3,1,6): x(1,1,5) + e(2,1,5) - x(2,1,6) - e(2,1,6) = 0
 32(3,1,7): x(1,1,6) + e(2,1,6) - x(2,1,7) - e(2,1,7) = 0
 32(3,1,8): x(1,1,7) + e(2,1,7) - x(2,1,8) - e(2,1,8) = 0
 32(3,1,9): x(1,1,8) + e(2,1,8) - x(2,1,9) - e(2,1,9) = 0
 32(3,1,10): x(1,1,9) + e(2,1,9) - x(2,1,10) - e(2,1,10) = 0
 32(3,2,1): - x(1,2,1) - e(1,2,1) = 0
 32(3,2,2): e(1,2,1) - x(1,2,2) - e(1,2,2) = 0
 32(3,2,3): e(1,2,2) - x(1,2,3) - e(1,2,3) + x(3,2,1) = 0
 32(3,2,4): e(1,2,3) - x(1,2,4) - e(1,2,4) + x(3,2,2) = 0
 32(3,2,5): e(1,2,4) - x(1,2,5) - e(1,2,5) + x(3,2,3) = 0
 32(3,2,6): e(1,2,5) - x(1,2,6) - e(1,2,6) + x(3,2,4) = 0
 32(3,2,7): e(1,2,6) - x(1,2,7) - e(1,2,7) + x(3,2,5) = 0
 32(3,2,8): e(1,2,7) - x(1,2,8) - e(1,2,8) + x(3,2,6) = 0
 32(3,2,9): e(1,2,8) - x(1,2,9) - e(1,2,9) + x(3,2,7) = 0
 32(3,2,10): e(1,2,9) - x(1,2,10) - e(1,2,10) + x(3,2,8) = 0
 32(3,3,1): - x(1,3,1) - e(1,3,1) = 0
 32(3,3,2): e(1,3,1) - x(1,3,2) - e(1,3,2) = 0
 32(3,3,3): e(1,3,2) - x(1,3,3) - e(1,3,3) + x(2,3,1) = 0
 32(3,3,4): e(1,3,3) - x(1,3,4) - e(1,3,4) + x(2,3,2) = 0
 32(3,3,5): e(1,3,4) - x(1,3,5) - e(1,3,5) + x(2,3,3) = 0
 32(3,3,6): e(1,3,5) - x(1,3,6) - e(1,3,6) + x(2,3,4) = 0
 32(3,3,7): e(1,3,6) - x(1,3,7) - e(1,3,7) + x(2,3,5) = 0
 32(3,3,8): e(1,3,7) - x(1,3,8) - e(1,3,8) + x(2,3,6) = 0
 32(3,3,9): e(1,3,8) - x(1,3,9) - e(1,3,9) + x(2,3,7) = 0
 32(3,3,10): e(1,3,9) - x(1,3,10) - e(1,3,10) + x(2,3,8) = 0
 execution(1,1): x(1,1,1) + x(1,1,2) + x(1,1,3) + x(1,1,4) + x(1,1,5)
   + x(1,1,6) + x(1,1,7) + x(1,1,8) + x(1,1,9) + x(1,1,10) = 1
 execution(1,2): x(1,2,1) + x(1,2,2) + x(1,2,3) + x(1,2,4) + x(1,2,5)
   + x(1,2,6) + x(1,2,7) + x(1,2,8) + x(1,2,9) + x(1,2,10) = 1
 execution(1,3): x(1,3,1) + x(1,3,2) + x(1,3,3) + x(1,3,4) + x(1,3,5)
   + x(1,3,6) + x(1,3,7) + x(1,3,8) + x(1,3,9) + x(1,3,10) = 1
 execution(2,1): x(2,1,1) + x(2,1,2) + x(2,1,3) + x(2,1,4) + x(2,1,5)
   + x(2,1,6) + x(2,1,7) + x(2,1,8) + x(2,1,9) + x(2,1,10) = 1
 execution(2,2): x(2,2,1) + x(2,2,2) + x(2,2,3) + x(2,2,4) + x(2,2,5)
   + x(2,2,6) + x(2,2,7) + x(2,2,8) + x(2,2,9) + x(2,2,10) = 1
 execution(2,3): x(2,3,1) + x(2,3,2) + x(2,3,3) + x(2,3,4) + x(2,3,5)
   + x(2,3,6) + x(2,3,7) + x(2,3,8) + x(2,3,9) + x(2,3,10) = 1
 execution(3,1): x(3,1,1) + x(3,1,2) + x(3,1,3) + x(3,1,4) + x(3,1,5)
   + x(3,1,6) + x(3,1,7) + x(3,1,8) + x(3,1,9) + x(3,1,10) = 1
 execution(3,2): x(3,2,1) + x(3,2,2) + x(3,2,3) + x(3,2,4) + x(3,2,5)
   + x(3,2,6) + x(3,2,7) + x(3,2,8) + x(3,2,9) + x(3,2,10) = 1
 execution(3,3): x(3,3,1) + x(3,3,2) + x(3,3,3) + x(3,3,4) + x(3,3,5)
   + x(3,3,6) + x(3,3,7) + x(3,3,8) + x(3,3,9) + x(3,3,10) = 1
 fin(1): - 5 x(2,1,4) - 6 x(2,1,5) - 7 x(2,1,6) - 8 x(2,1,7) - 9 x(2,1,8)
   - 10 x(2,1,9) - 11 x(2,1,10) + C >= 0
 fin(2): - 5 x(1,2,4) - 6 x(1,2,5) - 7 x(1,2,6) - 8 x(1,2,7) - 9 x(1,2,8)
   - 10 x(1,2,9) - 11 x(1,2,10) + C >= 0
 fin(3): - 4 x(1,3,4) - 5 x(1,3,5) - 6 x(1,3,6) - 7 x(1,3,7) - 8 x(1,3,8)
   - 9 x(1,3,9) - 10 x(1,3,10) + C >= 0
Bounds
Binaries
 f(1,1) x(1,1,1) e(1,1,1) x(1,2,1) e(1,2,1) x(1,3,1) e(1,3,1) f(1,2)
 x(1,1,2) e(1,1,2) x(1,2,2) e(1,2,2) x(1,3,2) e(1,3,2) f(1,3) x(1,1,3)
 e(1,1,3) x(1,2,3) e(1,2,3) x(1,3,3) e(1,3,3) f(1,4) x(1,1,4) e(1,1,4)
 x(1,2,4) e(1,2,4) x(1,3,4) e(1,3,4) f(1,5) x(1,1,5) e(1,1,5) x(1,2,5)
 e(1,2,5) x(1,3,5) e(1,3,5) f(1,6) x(1,1,6) e(1,1,6) x(1,2,6) e(1,2,6)
 x(1,3,6) e(1,3,6) f(1,7) x(1,1,7) e(1,1,7) x(1,2,7) e(1,2,7) x(1,3,7)
 e(1,3,7) f(1,8) x(1,1,8) e(1,1,8) x(1,2,8) e(1,2,8) x(1,3,8) e(1,3,8)
 f(1,9) x(1,1,9) e(1,1,9) x(1,2,9) e(1,2,9) x(1,3,9) e(1,3,9) f(1,10)
 x(1,1,10) e(1,1,10) x(1,2,10) e(1,2,10) x(1,3,10) e(1,3,10) f(2,1)
 x(2,1,1) e(2,1,1) x(2,2,1) e(2,2,1) x(2,3,1) e(2,3,1) f(2,2) x(2,1,2)
 e(2,1,2) x(2,2,2) e(2,2,2) x(2,3,2) e(2,3,2) f(2,3) x(2,1,3) e(2,1,3)
 x(2,2,3) e(2,2,3) x(2,3,3) e(2,3,3) f(2,4) x(2,1,4) e(2,1,4) x(2,2,4)
 e(2,2,4) x(2,3,4) e(2,3,4) f(2,5) x(2,1,5) e(2,1,5) x(2,2,5) e(2,2,5)
 x(2,3,5) e(2,3,5) f(2,6) x(2,1,6) e(2,1,6) x(2,2,6) e(2,2,6) x(2,3,6)
 e(2,3,6) f(2,7) x(2,1,7) e(2,1,7) x(2,2,7) e(2,2,7) x(2,3,7) e(2,3,7)
 f(2,8) x(2,1,8) e(2,1,8) x(2,2,8) e(2,2,8) x(2,3,8) e(2,3,8) f(2,9)
 x(2,1,9) e(2,1,9) x(2,2,9) e(2,2,9) x(2,3,9) e(2,3,9) f(2,10) x(2,1,10)
 e(2,1,10) x(2,2,10) e(2,2,10) x(2,3,10) e(2,3,10) f(3,1) x(3,1,1) e(3,1,1)
 x(3,2,1) e(3,2,1) x(3,3,1) e(3,3,1) f(3,2) x(3,1,2) e(3,1,2) x(3,2,2)
 e(3,2,2) x(3,3,2) e(3,3,2) f(3,3) x(3,1,3) e(3,1,3) x(3,2,3) e(3,2,3)
 x(3,3,3) e(3,3,3) f(3,4) x(3,1,4) e(3,1,4) x(3,2,4) e(3,2,4) x(3,3,4)
 e(3,3,4) f(3,5) x(3,1,5) e(3,1,5) x(3,2,5) e(3,2,5) x(3,3,5) e(3,3,5)
 f(3,6) x(3,1,6) e(3,1,6) x(3,2,6) e(3,2,6) x(3,3,6) e(3,3,6) f(3,7)
 x(3,1,7) e(3,1,7) x(3,2,7) e(3,2,7) x(3,3,7) e(3,3,7) f(3,8) x(3,1,8)
 e(3,1,8) x(3,2,8) e(3,2,8) x(3,3,8) e(3,3,8) f(3,9) x(3,1,9) e(3,1,9)
 x(3,2,9) e(3,2,9) x(3,3,9) e(3,3,9) f(3,10) x(3,1,10) e(3,1,10) x(3,2,10)
 e(3,2,10) x(3,3,10) e(3,3,10)
Generals
 C
End
